c SAT Generator for power-law distributed variable frequencies
c -g u -v 20 -c 91 -k 3 -p 2.750000 -b 3.200000 -f /home/schmidt/Devel/ni-kop-sat/data/ensemble/ruf20-91/ruf20-91-102 -u 1 -U 1 -s 3325824762
p cnf 20 91
3 -5 14 0
-5 8 19 0
-2 10 -17 0
5 -17 -18 0
2 -15 -19 0
5 -6 16 0
8 15 -19 0
1 -12 18 0
-1 5 10 0
-8 -12 -18 0
-3 6 10 0
-5 9 -12 0
-9 16 -18 0
-3 6 -17 0
-4 -8 -18 0
6 -12 -19 0
11 -15 17 0
-4 7 14 0
-4 15 -17 0
-5 7 -10 0
-5 10 19 0
5 17 -20 0
6 -9 19 0
-4 -17 18 0
-4 13 16 0
10 -13 -20 0
-6 11 -19 0
-3 6 12 0
-8 -17 18 0
-2 -3 -14 0
1 -7 17 0
-3 5 -11 0
-2 8 18 0
3 8 9 0
-13 -17 -20 0
3 7 13 0
4 -9 -11 0
-8 -10 -14 0
-5 -9 13 0
-4 -11 17 0
-8 -11 -15 0
-3 14 17 0
3 10 -13 0
11 -13 17 0
9 15 19 0
-8 12 16 0
2 7 -17 0
7 -8 -14 0
-9 -14 18 0
-15 17 20 0
-6 -10 -13 0
8 -12 -19 0
-5 12 -18 0
10 -14 16 0
-1 -4 -19 0
-14 -15 -19 0
1 3 8 0
3 4 -6 0
2 4 -19 0
-7 -12 13 0
2 8 16 0
-15 17 -18 0
-12 13 -18 0
1 -9 -10 0
6 14 16 0
-7 12 -20 0
-2 7 12 0
-2 13 -16 0
-1 2 -5 0
5 10 -13 0
1 9 -19 0
4 -14 -19 0
-5 -10 -11 0
-7 12 -18 0
11 -16 -19 0
2 4 19 0
8 16 19 0
-1 -8 -18 0
6 8 -13 0
-1 8 -13 0
6 -11 -18 0
8 9 -19 0
9 15 -20 0
-1 3 -9 0
3 -9 19 0
5 9 18 0
-3 10 14 0
2 4 18 0
9 15 -18 0
-7 -8 20 0
4 -8 9 0
